objective value:                           -6313.3871
x7                                                  1 	(obj:-255.33)
x17                                                 1 	(obj:-47.2558)
x27                                                 1 	(obj:-1009.2)
x104                                                1 	(obj:-353.35)
x186                                                1 	(obj:-507.542)
x205                                                1 	(obj:-116.295)
x211                                                1 	(obj:-36.1213)
x213                                                1 	(obj:-577.313)
x235                                                1 	(obj:-137.31)
x250                                                1 	(obj:-196.126)
x262                                                1 	(obj:-257.785)
x272                                                1 	(obj:-1023.62)
x332                                                1 	(obj:-475.889)
x357                                                1 	(obj:-330.64)
x361                                                1 	(obj:-125.09)
x415                                                1 	(obj:-351.618)
x444                                                1 	(obj:-275.651)
x482                                                1 	(obj:-237.251)
